$molecule
0 1
  C       3.5524202394     0.0173158350     0.0012291479
  C       2.3493872799     0.0562857270     0.0019930428
  H       1.2796058598     0.0896755733     0.0023688561
  C       5.0097667670    -0.0299336469     0.0000662308
  H       5.3913874724    -0.3674000079    -0.9681107199
  H       5.3814013428    -0.7178916448     0.7652385603
  H       5.4350815865     0.9575461778     0.2022393660
  O      -0.8256828815     0.0691570261    -0.0058655136
  C      -1.7163711925     1.1910117806     0.1308960572
  C      -3.1114521537     0.6680730876    -0.2240719076
  C      -3.0228288035    -0.7982944651     0.2284036030
  C      -1.5768906081    -1.1520717087    -0.1325825759
  H      -1.6762508994     1.5519321494     1.1660642385
  H      -3.9073022548     1.2273388807     0.2715364514
  H      -3.1767485354    -0.8730380884     1.3091948893
  H      -1.1325386171    -1.8995474959     0.5286488149
  H      -3.2774831072     0.7237499953    -1.3042155177
  H      -1.3685004983     1.9888178538    -0.5292922322
  H      -1.4986665755    -1.5101031381    -1.1664411632
  H      -3.7484048266    -1.4485891810    -0.2639415365
$end


$rem
BASIS  =  6-311++G**
METHOD = B3LYP
DFT_D = D3
JOB_TYPE  =  opt
SCF_CONVERGENCE  =  10
SCF_ALGORITHM = RCA_DIIS
THRESH  =  14
XC_SMART_GRID = True
XC_GRID = 000099000590
MAX_SCF_CYCLES = 200
GEOM_OPT_MAX_CYCLES = 500
MEM_TOTAL = 1500
GEOM_OPT_TOL_GRADIENT=300
GEOM_OPT_TOL_DISPLACEMENT=1200
GEOM_OPT_TOL_ENERGY = 100
$end

$comment
First geometry optimization (default convergence values)
$end

@@@


$molecule
read
$end


$rem
BASIS  =  6-311++G**
METHOD = B3LYP
DFT_D = D3
JOB_TYPE  =  opt
SCF_CONVERGENCE  =  10
SCF_ALGORITHM = RCA_DIIS
THRESH  =  14
XC_SMART_GRID = True
XC_GRID = 000099000590
MAX_SCF_CYCLES = 200
GEOM_OPT_MAX_CYCLES = 500
MEM_TOTAL = 1500
GEOM_OPT_TOL_GRADIENT=30
GEOM_OPT_TOL_DISPLACEMENT=120
GEOM_OPT_TOL_ENERGY = 10
$end

$comment
Second geometry optimization (10x default convergence values)
$end

@@@

$molecule
read
$end


$rem
BASIS  =  6-311++G**
METHOD = B3LYP
DFT_D = D3
JOB_TYPE  =  opt
SCF_CONVERGENCE  =  10
SCF_ALGORITHM = RCA_DIIS
THRESH  =  14
XC_SMART_GRID = True
XC_GRID = 000099000590
MAX_SCF_CYCLES = 200
GEOM_OPT_MAX_CYCLES = 500
MEM_TOTAL = 1500
GEOM_OPT_TOL_GRADIENT=3
GEOM_OPT_TOL_DISPLACEMENT=12
GEOM_OPT_TOL_ENERGY = 1
$end

$comment
Third geometry optimization (100x default convergence values)
$end

@@@

$molecule
read
$end

$rem
BASIS  =  6-311++G**
METHOD = B3LYP
DFT_D = D3
JOB_TYPE  =  freq
SCF_CONVERGENCE  =  10
SCF_ALGORITHM = RCA_DIIS
THRESH  =  14
XC_SMART_GRID = True
XC_GRID = 000099000590
MAX_SCF_CYCLES = 200
MEM_TOTAL = 1500
$end

$comment
Harmonic frequency calculation
$end